32      4       
20      16      17      18      
0       0       0       0       0       1       2       
9       14      16      9       18      1       3       
4       20      10      17      18      2       4       8       
5       20      16      9       18      1       5       
6       20      16      17      18      2       6       7       
4       20      16      8       11      2       9       12      
5       20      16      12      18      1       10      
10      7       16      17      14      1       9       
4       10      16      17      8       2       11      13      
3       20      16      12      7       2       11      13      
4       5       16      17      18      3       14      15      17      
7       19      8       17      13      3       14      15      17      
5       3       16      16      18      1       14      
2       11      8       17      8       3       16      18      24      
5       17      16      17      18      2       16      24      
3       17      10      3       18      3       19      20      22      
10      1       6       10      13      3       19      20      23      
5       19      15      17      5       3       20      22      23      
10      20      16      12      18      1       21      
5       18      8       17      16      1       25      
8       20      16      17      5       1       25      
5       19      13      1       15      1       25      
5       20      8       17      18      1       25      
3       20      16      17      1       1       25      
1       20      10      17      18      2       26      27      
1       20      12      5       18      2       28      29      
4       4       16      17      18      1       28      
2       20      12      17      10      2       30      31      
9       20      6       16      18      1       30      
6       16      9       17      18      1       32      
8       20      9       6       18      1       32      
0       0       0       0       0       0       
